743
9496
5122
4428
5259
2736
7308
7378
7330
858
405
5684
9093
2200
2660
923
9748
4162
4290
4559
4304
5276
2356
6256
2605
6496
1752
2191
6844
9480
2152
1243
1114
4006
3913
9321
8858
8776
6087
5787
8536
5289
6833
10143
7638
2362
4900
10016
7115
2074
2494
